20J6M/DAT/20J6MUNL-13.dat
20 6
16.7831 16.7831
32.6001 32.6001
37.2776 37.2776
22.4785 22.4785
7.8285 7.8285
34.5296 34.5296
13.3308 13.3308
21.1164 21.1164
21.1583 21.1583
22.254 22.254
31.3682 31.3682
20.0563 20.0563
44.4133 44.4133
43.8415 43.8415
17.1252 17.1252
41.2648 41.2648
31.1052 31.1052
10.4313 10.4313
17.3918 17.3918
16.9731 16.9731
503.3276