20J6M/SOL/20J6MUNL-13.sol
solution status: optimal solution found
objective value:                     83.8879333333333
x#1#3                                               1 	(obj:0)
x#2#5                                               1 	(obj:0)
x#3#2                                               1 	(obj:0)
x#4#1                               0.751715342809054 	(obj:0)
x#4#4                               0.248284657190946 	(obj:0)
x#5#3                                               1 	(obj:0)
x#6#2                              0.0283428324297608 	(obj:0)
x#6#5                               0.971657167570239 	(obj:0)
x#7#3                                               1 	(obj:0)
x#8#4                                               1 	(obj:0)
x#9#4                                               1 	(obj:0)
x#10#1                                              1 	(obj:0)
x#11#1                              0.434557928092782 	(obj:0)
x#11#5                              0.565442071907218 	(obj:0)
x#12#4                                              1 	(obj:0)
x#13#2                                              1 	(obj:0)
x#14#2                             0.0277902596094264 	(obj:0)
x#14#6                              0.972209740390574 	(obj:0)
x#15#3                                              1 	(obj:0)
x#16#6                                              1 	(obj:0)
x#17#1                                              1 	(obj:0)
x#18#3                                              1 	(obj:0)
x#19#3                             0.0814138463720448 	(obj:0)
x#19#4                              0.918586153627955 	(obj:0)
x#20#3                                              1 	(obj:0)
z                                    83.8879333333333 	(obj:1)
